\ENCODING=ISO-8859-1
\Problem name: districting

Maximize
 obj1: 29749 c_0_0_4 + 883 c_0_0_6 + 39466 c_0_0_7 + 20867 c_0_0_8
       + 16950 c_0_0_9 + 45902 c_0_1_4 + 33443 c_0_1_10 + 54797 c_0_1_11
       + 2326 c_0_2_6 + 15037 c_0_2_8 + 28464 c_0_2_9 + 23641 c_0_3_7
       + 43734 c_0_3_8 + 50824 c_0_4_6 + 28881 c_0_4_7 + 11325 c_0_4_10
       + 36934 c_0_4_11 + 26795 c_0_5_7 + 61995 c_0_5_10 + 34967 c_0_6_9
       + 10147 c_0_6_11 + 17935 c_0_7_8 + 19134 c_0_7_10 + 27039 c_0_8_9
       + 29749 c_1_0_4 + 883 c_1_0_6 + 39466 c_1_0_7 + 20867 c_1_0_8
       + 16950 c_1_0_9 + 45902 c_1_1_4 + 33443 c_1_1_10 + 54797 c_1_1_11
       + 2326 c_1_2_6 + 15037 c_1_2_8 + 28464 c_1_2_9 + 23641 c_1_3_7
       + 43734 c_1_3_8 + 50824 c_1_4_6 + 28881 c_1_4_7 + 11325 c_1_4_10
       + 36934 c_1_4_11 + 26795 c_1_5_7 + 61995 c_1_5_10 + 34967 c_1_6_9
       + 10147 c_1_6_11 + 17935 c_1_7_8 + 19134 c_1_7_10 + 27039 c_1_8_9
Subject To
 c1:   x_0_0 + x_1_0  = 1
 c2:   x_0_1 + x_1_1  = 1
 c3:   x_0_2 + x_1_2  = 1
 c4:   x_0_3 + x_1_3  = 1
 c5:   x_0_4 + x_1_4  = 1
 c6:   x_0_5 + x_1_5  = 1
 c7:   x_0_6 + x_1_6  = 1
 c8:   x_0_7 + x_1_7  = 1
 c9:   x_0_8 + x_1_8  = 1
 c10:  x_0_9 + x_1_9  = 1
 c11:  x_0_10 + x_1_10  = 1
 c12:  x_0_11 + x_1_11  = 1
 c13:  x_0_0 + x_1_0 >= 1
 c14:  x_0_1 + x_1_1 >= 1
 c15:  x_0_2 + x_1_2 >= 1
 c16:  x_0_3 + x_1_3 >= 1
 c17:  x_0_4 + x_1_4 >= 1
 c18:  x_0_5 + x_1_5 >= 1
 c19:  x_0_6 + x_1_6 >= 1
 c20:  x_0_7 + x_1_7 >= 1
 c21:  x_0_8 + x_1_8 >= 1
 c22:  x_0_9 + x_1_9 >= 1
 c23:  x_0_10 + x_1_10 >= 1
 c24:  x_0_11 + x_1_11 >= 1
 c25:  x_0_0 + x_0_1 + x_0_2 + x_0_3 + x_0_4 + x_0_5 + x_0_6 + x_0_7 + x_0_8
       + x_0_9 + x_0_10 + x_0_11 >= 1
 c26:  x_1_0 + x_1_1 + x_1_2 + x_1_3 + x_1_4 + x_1_5 + x_1_6 + x_1_7 + x_1_8
       + x_1_9 + x_1_10 + x_1_11 >= 1
 c27:  5365 x_0_0 + 36212 x_0_1 + 6339 x_0_2 + 3244 x_0_3 + 18040 x_0_4
       + 7444 x_0_5 + 23474 x_0_6 + 10417 x_0_7 + 8262 x_0_8 + 6941 x_0_9
       + 5806 x_0_10 + 9997 x_0_11 <= 81386.65
 c28:  5365 x_0_0 + 36212 x_0_1 + 6339 x_0_2 + 3244 x_0_3 + 18040 x_0_4
       + 7444 x_0_5 + 23474 x_0_6 + 10417 x_0_7 + 8262 x_0_8 + 6941 x_0_9
       + 5806 x_0_10 + 9997 x_0_11 >= 60155.35
 c29:  5365 x_1_0 + 36212 x_1_1 + 6339 x_1_2 + 3244 x_1_3 + 18040 x_1_4
       + 7444 x_1_5 + 23474 x_1_6 + 10417 x_1_7 + 8262 x_1_8 + 6941 x_1_9
       + 5806 x_1_10 + 9997 x_1_11 <= 81386.65
 c30:  5365 x_1_0 + 36212 x_1_1 + 6339 x_1_2 + 3244 x_1_3 + 18040 x_1_4
       + 7444 x_1_5 + 23474 x_1_6 + 10417 x_1_7 + 8262 x_1_8 + 6941 x_1_9
       + 5806 x_1_10 + 9997 x_1_11 >= 60155.35
 c31:  - x_0_0 - x_0_1 + x_0_4 >= -1
 c32:  - x_0_0 - x_0_2 + x_0_6 + x_0_8 + x_0_9 >= -1
 c33:  - x_0_0 - x_0_3 + x_0_7 + x_0_8 >= -1
 c34:  - x_0_0 - x_0_5 + x_0_7 >= -1
 c35:  - x_0_0 + x_0_4 + x_0_7 - x_0_10 >= -1
 c36:  - x_0_0 + x_0_4 + x_0_6 - x_0_11 >= -1
 c37:  - x_0_0 - x_0_1 + x_0_4 >= -1
 c38:  - x_0_1 - x_0_2 + x_0_6 >= -1
 c39:  - x_0_1 - x_0_3 + x_0_7 >= -1
 c40:  - x_0_1 - x_0_5 + x_0_10 >= -1
 c41:  - x_0_1 + x_0_4 - x_0_6 + x_0_11 >= -1
 c42:  - x_0_1 + x_0_4 - x_0_7 + x_0_10 >= -1
 c43:  x_0_0 - x_0_1 + x_0_7 - x_0_8 >= -1
 c44:  x_0_0 - x_0_1 + x_0_6 - x_0_9 >= -1
 c45:  - x_0_0 - x_0_2 + x_0_6 + x_0_8 + x_0_9 >= -1
 c46:  - x_0_1 - x_0_2 + x_0_4 + x_0_11 >= -1
 c47:  - x_0_2 - x_0_3 + x_0_8 >= -1
 c48:  - x_0_2 - x_0_4 + x_0_6 >= -1
 c49:  - x_0_2 - x_0_5 + x_0_7 >= -1
 c50:  - x_0_2 - x_0_7 + x_0_8 >= -1
 c51:  - x_0_2 + x_0_4 + x_0_7 - x_0_10 >= -1
 c52:  - x_0_2 + x_0_6 - x_0_11 >= -1
 c53:  - x_0_0 - x_0_3 + x_0_7 + x_0_8 >= -1
 c54:  - x_0_1 - x_0_3 + x_0_4 + x_0_10 >= -1
 c55:  - x_0_2 - x_0_3 + x_0_8 >= -1
 c56:  - x_0_3 - x_0_4 + x_0_7 >= -1
 c57:  - x_0_3 - x_0_5 + x_0_7 >= -1
 c58:  x_0_0 + x_0_2 - x_0_3 + x_0_4 - x_0_6 + x_0_9 >= -1
 c59:  - x_0_3 + x_0_8 - x_0_9 >= -1
 c60:  - x_0_3 + x_0_7 - x_0_10 >= -1
 c61:  - x_0_3 + x_0_4 - x_0_11 >= -1
 c62:  - x_0_2 - x_0_4 + x_0_6 >= -1
 c63:  - x_0_3 - x_0_4 + x_0_7 >= -1
 c64:  - x_0_4 - x_0_5 + x_0_7 + x_0_10 >= -1
 c65:  x_0_0 - x_0_4 + x_0_7 - x_0_8 >= -1
 c66:  x_0_0 - x_0_4 + x_0_6 - x_0_9 >= -1
 c67:  - x_0_0 - x_0_5 + x_0_7 >= -1
 c68:  - x_0_1 - x_0_5 + x_0_10 >= -1
 c69:  - x_0_2 - x_0_5 + x_0_8 >= -1
 c70:  - x_0_3 - x_0_5 + x_0_7 >= -1
 c71:  - x_0_4 - x_0_5 + x_0_7 + x_0_10 >= -1
 c72:  x_0_0 + x_0_4 - x_0_5 - x_0_6 >= -1
 c73:  - x_0_5 + x_0_7 - x_0_8 >= -1
 c74:  x_0_0 - x_0_5 + x_0_8 - x_0_9 >= -1
 c75:  x_0_1 + x_0_4 - x_0_5 - x_0_11 >= -1
 c76:  - x_0_1 + x_0_4 - x_0_6 + x_0_11 >= -1
 c77:  - x_0_3 - x_0_6 + x_0_7 + x_0_8 >= -1
 c78:  - x_0_5 - x_0_6 + x_0_7 + x_0_10 >= -1
 c79:  x_0_0 + x_0_4 - x_0_6 - x_0_7 >= -1
 c80:  x_0_0 + x_0_2 - x_0_6 - x_0_8 + x_0_9 >= -1
 c81:  x_0_4 - x_0_6 - x_0_10 >= -1
 c82:  - x_0_1 + x_0_4 - x_0_7 + x_0_10 >= -1
 c83:  - x_0_2 - x_0_7 + x_0_8 >= -1
 c84:  x_0_0 + x_0_4 - x_0_6 - x_0_7 >= -1
 c85:  x_0_0 - x_0_7 + x_0_8 - x_0_9 >= -1
 c86:  x_0_4 - x_0_7 - x_0_11 >= -1
 c87:  - x_0_1 + x_0_4 - x_0_8 + x_0_10 >= -1
 c88:  x_0_0 - x_0_4 + x_0_7 - x_0_8 >= -1
 c89:  - x_0_5 + x_0_7 - x_0_8 >= -1
 c90:  x_0_0 + x_0_2 - x_0_6 - x_0_8 + x_0_9 >= -1
 c91:  x_0_7 - x_0_8 - x_0_10 >= -1
 c92:  x_0_4 + x_0_6 - x_0_8 - x_0_11 >= -1
 c93:  - x_0_1 + x_0_4 - x_0_9 + x_0_11 >= -1
 c94:  - x_0_3 + x_0_8 - x_0_9 >= -1
 c95:  x_0_0 - x_0_4 + x_0_6 - x_0_9 >= -1
 c96:  - x_0_5 + x_0_7 - x_0_9 >= -1
 c97:  x_0_0 - x_0_7 + x_0_8 - x_0_9 >= -1
 c98:  x_0_4 + x_0_7 - x_0_9 - x_0_10 >= -1
 c99:  x_0_6 - x_0_9 - x_0_11 >= -1
 c100: - x_0_0 + x_0_4 + x_0_7 - x_0_10 >= -1
 c101: - x_0_2 + x_0_6 + x_0_8 - x_0_10 >= -1
 c102: - x_0_3 + x_0_7 - x_0_10 >= -1
 c103: x_0_4 - x_0_6 - x_0_10 >= -1
 c104: x_0_7 - x_0_8 - x_0_10 >= -1
 c105: x_0_0 + x_0_6 + x_0_8 - x_0_9 - x_0_10 >= -1
 c106: x_0_1 + x_0_4 - x_0_10 - x_0_11 >= -1
 c107: - x_0_0 + x_0_4 + x_0_6 - x_0_11 >= -1
 c108: - x_0_2 + x_0_6 - x_0_11 >= -1
 c109: - x_0_3 + x_0_7 - x_0_11 >= -1
 c110: - x_0_5 + x_0_7 + x_0_10 - x_0_11 >= -1
 c111: x_0_4 - x_0_7 - x_0_11 >= -1
 c112: x_0_0 + x_0_2 + x_0_7 - x_0_8 + x_0_9 - x_0_11 >= -1
 c113: x_0_6 - x_0_9 - x_0_11 >= -1
 c114: x_0_1 + x_0_4 - x_0_10 - x_0_11 >= -1
 c115: - x_1_0 - x_1_1 + x_1_4 >= -1
 c116: - x_1_0 - x_1_2 + x_1_6 + x_1_8 + x_1_9 >= -1
 c117: - x_1_0 - x_1_3 + x_1_7 + x_1_8 >= -1
 c118: - x_1_0 - x_1_5 + x_1_7 >= -1
 c119: - x_1_0 + x_1_4 + x_1_7 - x_1_10 >= -1
 c120: - x_1_0 + x_1_4 + x_1_6 - x_1_11 >= -1
 c121: - x_1_0 - x_1_1 + x_1_4 >= -1
 c122: - x_1_1 - x_1_2 + x_1_6 >= -1
 c123: - x_1_1 - x_1_3 + x_1_7 >= -1
 c124: - x_1_1 - x_1_5 + x_1_10 >= -1
 c125: - x_1_1 + x_1_4 - x_1_6 + x_1_11 >= -1
 c126: - x_1_1 + x_1_4 - x_1_7 + x_1_10 >= -1
 c127: x_1_0 - x_1_1 + x_1_7 - x_1_8 >= -1
 c128: x_1_0 - x_1_1 + x_1_6 - x_1_9 >= -1
 c129: - x_1_0 - x_1_2 + x_1_6 + x_1_8 + x_1_9 >= -1
 c130: - x_1_1 - x_1_2 + x_1_4 + x_1_11 >= -1
 c131: - x_1_2 - x_1_3 + x_1_8 >= -1
 c132: - x_1_2 - x_1_4 + x_1_6 >= -1
 c133: - x_1_2 - x_1_5 + x_1_7 >= -1
 c134: - x_1_2 - x_1_7 + x_1_8 >= -1
 c135: - x_1_2 + x_1_4 + x_1_7 - x_1_10 >= -1
 c136: - x_1_2 + x_1_6 - x_1_11 >= -1
 c137: - x_1_0 - x_1_3 + x_1_7 + x_1_8 >= -1
 c138: - x_1_1 - x_1_3 + x_1_4 + x_1_10 >= -1
 c139: - x_1_2 - x_1_3 + x_1_8 >= -1
 c140: - x_1_3 - x_1_4 + x_1_7 >= -1
 c141: - x_1_3 - x_1_5 + x_1_7 >= -1
 c142: x_1_0 + x_1_2 - x_1_3 + x_1_4 - x_1_6 + x_1_9 >= -1
 c143: - x_1_3 + x_1_8 - x_1_9 >= -1
 c144: - x_1_3 + x_1_7 - x_1_10 >= -1
 c145: - x_1_3 + x_1_4 - x_1_11 >= -1
 c146: - x_1_2 - x_1_4 + x_1_6 >= -1
 c147: - x_1_3 - x_1_4 + x_1_7 >= -1
 c148: - x_1_4 - x_1_5 + x_1_7 + x_1_10 >= -1
 c149: x_1_0 - x_1_4 + x_1_7 - x_1_8 >= -1
 c150: x_1_0 - x_1_4 + x_1_6 - x_1_9 >= -1
 c151: - x_1_0 - x_1_5 + x_1_7 >= -1
 c152: - x_1_1 - x_1_5 + x_1_10 >= -1
 c153: - x_1_2 - x_1_5 + x_1_8 >= -1
 c154: - x_1_3 - x_1_5 + x_1_7 >= -1
 c155: - x_1_4 - x_1_5 + x_1_7 + x_1_10 >= -1
 c156: x_1_0 + x_1_4 - x_1_5 - x_1_6 >= -1
 c157: - x_1_5 + x_1_7 - x_1_8 >= -1
 c158: x_1_0 - x_1_5 + x_1_8 - x_1_9 >= -1
 c159: x_1_1 + x_1_4 - x_1_5 - x_1_11 >= -1
 c160: - x_1_1 + x_1_4 - x_1_6 + x_1_11 >= -1
 c161: - x_1_3 - x_1_6 + x_1_7 + x_1_8 >= -1
 c162: - x_1_5 - x_1_6 + x_1_7 + x_1_10 >= -1
 c163: x_1_0 + x_1_4 - x_1_6 - x_1_7 >= -1
 c164: x_1_0 + x_1_2 - x_1_6 - x_1_8 + x_1_9 >= -1
 c165: x_1_4 - x_1_6 - x_1_10 >= -1
 c166: - x_1_1 + x_1_4 - x_1_7 + x_1_10 >= -1
 c167: - x_1_2 - x_1_7 + x_1_8 >= -1
 c168: x_1_0 + x_1_4 - x_1_6 - x_1_7 >= -1
 c169: x_1_0 - x_1_7 + x_1_8 - x_1_9 >= -1
 c170: x_1_4 - x_1_7 - x_1_11 >= -1
 c171: - x_1_1 + x_1_4 - x_1_8 + x_1_10 >= -1
 c172: x_1_0 - x_1_4 + x_1_7 - x_1_8 >= -1
 c173: - x_1_5 + x_1_7 - x_1_8 >= -1
 c174: x_1_0 + x_1_2 - x_1_6 - x_1_8 + x_1_9 >= -1
 c175: x_1_7 - x_1_8 - x_1_10 >= -1
 c176: x_1_4 + x_1_6 - x_1_8 - x_1_11 >= -1
 c177: - x_1_1 + x_1_4 - x_1_9 + x_1_11 >= -1
 c178: - x_1_3 + x_1_8 - x_1_9 >= -1
 c179: x_1_0 - x_1_4 + x_1_6 - x_1_9 >= -1
 c180: - x_1_5 + x_1_7 - x_1_9 >= -1
 c181: x_1_0 - x_1_7 + x_1_8 - x_1_9 >= -1
 c182: x_1_4 + x_1_7 - x_1_9 - x_1_10 >= -1
 c183: x_1_6 - x_1_9 - x_1_11 >= -1
 c184: - x_1_0 + x_1_4 + x_1_7 - x_1_10 >= -1
 c185: - x_1_2 + x_1_6 + x_1_8 - x_1_10 >= -1
 c186: - x_1_3 + x_1_7 - x_1_10 >= -1
 c187: x_1_4 - x_1_6 - x_1_10 >= -1
 c188: x_1_7 - x_1_8 - x_1_10 >= -1
 c189: x_1_0 + x_1_6 + x_1_8 - x_1_9 - x_1_10 >= -1
 c190: x_1_1 + x_1_4 - x_1_10 - x_1_11 >= -1
 c191: - x_1_0 + x_1_4 + x_1_6 - x_1_11 >= -1
 c192: - x_1_2 + x_1_6 - x_1_11 >= -1
 c193: - x_1_3 + x_1_7 - x_1_11 >= -1
 c194: - x_1_5 + x_1_7 + x_1_10 - x_1_11 >= -1
 c195: x_1_4 - x_1_7 - x_1_11 >= -1
 c196: x_1_0 + x_1_2 + x_1_7 - x_1_8 + x_1_9 - x_1_11 >= -1
 c197: x_1_6 - x_1_9 - x_1_11 >= -1
 c198: x_1_1 + x_1_4 - x_1_10 - x_1_11 >= -1
 c199: - x_0_0 + c_0_0_4 <= 0
 c200: - x_0_4 + c_0_0_4 <= 0
 c201: - x_0_0 - x_0_4 + c_0_0_4 >= -1
 c202: c_0_0_4 + c_1_0_4 <= 1
 c203: - x_0_0 + c_0_0_6 <= 0
 c204: - x_0_6 + c_0_0_6 <= 0
 c205: - x_0_0 - x_0_6 + c_0_0_6 >= -1
 c206: c_0_0_6 + c_1_0_6 <= 1
 c207: - x_0_0 + c_0_0_7 <= 0
 c208: - x_0_7 + c_0_0_7 <= 0
 c209: - x_0_0 - x_0_7 + c_0_0_7 >= -1
 c210: c_0_0_7 + c_1_0_7 <= 1
 c211: - x_0_0 + c_0_0_8 <= 0
 c212: - x_0_8 + c_0_0_8 <= 0
 c213: - x_0_0 - x_0_8 + c_0_0_8 >= -1
 c214: c_0_0_8 + c_1_0_8 <= 1
 c215: - x_0_0 + c_0_0_9 <= 0
 c216: - x_0_9 + c_0_0_9 <= 0
 c217: - x_0_0 - x_0_9 + c_0_0_9 >= -1
 c218: c_0_0_9 + c_1_0_9 <= 1
 c219: - x_0_1 + c_0_1_4 <= 0
 c220: - x_0_4 + c_0_1_4 <= 0
 c221: - x_0_1 - x_0_4 + c_0_1_4 >= -1
 c222: c_0_1_4 + c_1_1_4 <= 1
 c223: - x_0_1 + c_0_1_10 <= 0
 c224: - x_0_10 + c_0_1_10 <= 0
 c225: - x_0_1 - x_0_10 + c_0_1_10 >= -1
 c226: c_0_1_10 + c_1_1_10 <= 1
 c227: - x_0_1 + c_0_1_11 <= 0
 c228: - x_0_11 + c_0_1_11 <= 0
 c229: - x_0_1 - x_0_11 + c_0_1_11 >= -1
 c230: c_0_1_11 + c_1_1_11 <= 1
 c231: - x_0_2 + c_0_2_6 <= 0
 c232: - x_0_6 + c_0_2_6 <= 0
 c233: - x_0_2 - x_0_6 + c_0_2_6 >= -1
 c234: c_0_2_6 + c_1_2_6 <= 1
 c235: - x_0_2 + c_0_2_8 <= 0
 c236: - x_0_8 + c_0_2_8 <= 0
 c237: - x_0_2 - x_0_8 + c_0_2_8 >= -1
 c238: c_0_2_8 + c_1_2_8 <= 1
 c239: - x_0_2 + c_0_2_9 <= 0
 c240: - x_0_9 + c_0_2_9 <= 0
 c241: - x_0_2 - x_0_9 + c_0_2_9 >= -1
 c242: c_0_2_9 + c_1_2_9 <= 1
 c243: - x_0_3 + c_0_3_7 <= 0
 c244: - x_0_7 + c_0_3_7 <= 0
 c245: - x_0_3 - x_0_7 + c_0_3_7 >= -1
 c246: c_0_3_7 + c_1_3_7 <= 1
 c247: - x_0_3 + c_0_3_8 <= 0
 c248: - x_0_8 + c_0_3_8 <= 0
 c249: - x_0_3 - x_0_8 + c_0_3_8 >= -1
 c250: c_0_3_8 + c_1_3_8 <= 1
 c251: - x_0_4 + c_0_4_0 <= 0
 c252: - x_0_0 + c_0_4_0 <= 0
 c253: - x_0_0 - x_0_4 + c_0_4_0 >= -1
 c254: c_0_4_0 + c_1_4_0 <= 1
 c255: - x_0_4 + c_0_4_1 <= 0
 c256: - x_0_1 + c_0_4_1 <= 0
 c257: - x_0_1 - x_0_4 + c_0_4_1 >= -1
 c258: c_0_4_1 + c_1_4_1 <= 1
 c259: - x_0_4 + c_0_4_6 <= 0
 c260: - x_0_6 + c_0_4_6 <= 0
 c261: - x_0_4 - x_0_6 + c_0_4_6 >= -1
 c262: c_0_4_6 + c_1_4_6 <= 1
 c263: - x_0_4 + c_0_4_7 <= 0
 c264: - x_0_7 + c_0_4_7 <= 0
 c265: - x_0_4 - x_0_7 + c_0_4_7 >= -1
 c266: c_0_4_7 + c_1_4_7 <= 1
 c267: - x_0_4 + c_0_4_10 <= 0
 c268: - x_0_10 + c_0_4_10 <= 0
 c269: - x_0_4 - x_0_10 + c_0_4_10 >= -1
 c270: c_0_4_10 + c_1_4_10 <= 1
 c271: - x_0_4 + c_0_4_11 <= 0
 c272: - x_0_11 + c_0_4_11 <= 0
 c273: - x_0_4 - x_0_11 + c_0_4_11 >= -1
 c274: c_0_4_11 + c_1_4_11 <= 1
 c275: - x_0_5 + c_0_5_7 <= 0
 c276: - x_0_7 + c_0_5_7 <= 0
 c277: - x_0_5 - x_0_7 + c_0_5_7 >= -1
 c278: c_0_5_7 + c_1_5_7 <= 1
 c279: - x_0_5 + c_0_5_10 <= 0
 c280: - x_0_10 + c_0_5_10 <= 0
 c281: - x_0_5 - x_0_10 + c_0_5_10 >= -1
 c282: c_0_5_10 + c_1_5_10 <= 1
 c283: - x_0_6 + c_0_6_0 <= 0
 c284: - x_0_0 + c_0_6_0 <= 0
 c285: - x_0_0 - x_0_6 + c_0_6_0 >= -1
 c286: c_0_6_0 + c_1_6_0 <= 1
 c287: - x_0_6 + c_0_6_2 <= 0
 c288: - x_0_2 + c_0_6_2 <= 0
 c289: - x_0_2 - x_0_6 + c_0_6_2 >= -1
 c290: c_0_6_2 + c_1_6_2 <= 1
 c291: - x_0_6 + c_0_6_4 <= 0
 c292: - x_0_4 + c_0_6_4 <= 0
 c293: - x_0_4 - x_0_6 + c_0_6_4 >= -1
 c294: c_0_6_4 + c_1_6_4 <= 1
 c295: - x_0_6 + c_0_6_9 <= 0
 c296: - x_0_9 + c_0_6_9 <= 0
 c297: - x_0_6 - x_0_9 + c_0_6_9 >= -1
 c298: c_0_6_9 + c_1_6_9 <= 1
 c299: - x_0_6 + c_0_6_11 <= 0
 c300: - x_0_11 + c_0_6_11 <= 0
 c301: - x_0_6 - x_0_11 + c_0_6_11 >= -1
 c302: c_0_6_11 + c_1_6_11 <= 1
 c303: - x_0_7 + c_0_7_0 <= 0
 c304: - x_0_0 + c_0_7_0 <= 0
 c305: - x_0_0 - x_0_7 + c_0_7_0 >= -1
 c306: c_0_7_0 + c_1_7_0 <= 1
 c307: - x_0_7 + c_0_7_3 <= 0
 c308: - x_0_3 + c_0_7_3 <= 0
 c309: - x_0_3 - x_0_7 + c_0_7_3 >= -1
 c310: c_0_7_3 + c_1_7_3 <= 1
 c311: - x_0_7 + c_0_7_4 <= 0
 c312: - x_0_4 + c_0_7_4 <= 0
 c313: - x_0_4 - x_0_7 + c_0_7_4 >= -1
 c314: c_0_7_4 + c_1_7_4 <= 1
 c315: - x_0_7 + c_0_7_5 <= 0
 c316: - x_0_5 + c_0_7_5 <= 0
 c317: - x_0_5 - x_0_7 + c_0_7_5 >= -1
 c318: c_0_7_5 + c_1_7_5 <= 1
 c319: - x_0_7 + c_0_7_8 <= 0
 c320: - x_0_8 + c_0_7_8 <= 0
 c321: - x_0_7 - x_0_8 + c_0_7_8 >= -1
 c322: c_0_7_8 + c_1_7_8 <= 1
 c323: - x_0_7 + c_0_7_10 <= 0
 c324: - x_0_10 + c_0_7_10 <= 0
 c325: - x_0_7 - x_0_10 + c_0_7_10 >= -1
 c326: c_0_7_10 + c_1_7_10 <= 1
 c327: - x_0_8 + c_0_8_0 <= 0
 c328: - x_0_0 + c_0_8_0 <= 0
 c329: - x_0_0 - x_0_8 + c_0_8_0 >= -1
 c330: c_0_8_0 + c_1_8_0 <= 1
 c331: - x_0_8 + c_0_8_2 <= 0
 c332: - x_0_2 + c_0_8_2 <= 0
 c333: - x_0_2 - x_0_8 + c_0_8_2 >= -1
 c334: c_0_8_2 + c_1_8_2 <= 1
 c335: - x_0_8 + c_0_8_3 <= 0
 c336: - x_0_3 + c_0_8_3 <= 0
 c337: - x_0_3 - x_0_8 + c_0_8_3 >= -1
 c338: c_0_8_3 + c_1_8_3 <= 1
 c339: - x_0_8 + c_0_8_7 <= 0
 c340: - x_0_7 + c_0_8_7 <= 0
 c341: - x_0_7 - x_0_8 + c_0_8_7 >= -1
 c342: c_0_8_7 + c_1_8_7 <= 1
 c343: - x_0_8 + c_0_8_9 <= 0
 c344: - x_0_9 + c_0_8_9 <= 0
 c345: - x_0_8 - x_0_9 + c_0_8_9 >= -1
 c346: c_0_8_9 + c_1_8_9 <= 1
 c347: - x_0_9 + c_0_9_0 <= 0
 c348: - x_0_0 + c_0_9_0 <= 0
 c349: - x_0_0 - x_0_9 + c_0_9_0 >= -1
 c350: c_0_9_0 + c_1_9_0 <= 1
 c351: - x_0_9 + c_0_9_2 <= 0
 c352: - x_0_2 + c_0_9_2 <= 0
 c353: - x_0_2 - x_0_9 + c_0_9_2 >= -1
 c354: c_0_9_2 + c_1_9_2 <= 1
 c355: - x_0_9 + c_0_9_6 <= 0
 c356: - x_0_6 + c_0_9_6 <= 0
 c357: - x_0_6 - x_0_9 + c_0_9_6 >= -1
 c358: c_0_9_6 + c_1_9_6 <= 1
 c359: - x_0_9 + c_0_9_8 <= 0
 c360: - x_0_8 + c_0_9_8 <= 0
 c361: - x_0_8 - x_0_9 + c_0_9_8 >= -1
 c362: c_0_9_8 + c_1_9_8 <= 1
 c363: - x_0_10 + c_0_10_1 <= 0
 c364: - x_0_1 + c_0_10_1 <= 0
 c365: - x_0_1 - x_0_10 + c_0_10_1 >= -1
 c366: c_0_10_1 + c_1_10_1 <= 1
 c367: - x_0_10 + c_0_10_4 <= 0
 c368: - x_0_4 + c_0_10_4 <= 0
 c369: - x_0_4 - x_0_10 + c_0_10_4 >= -1
 c370: c_0_10_4 + c_1_10_4 <= 1
 c371: - x_0_10 + c_0_10_5 <= 0
 c372: - x_0_5 + c_0_10_5 <= 0
 c373: - x_0_5 - x_0_10 + c_0_10_5 >= -1
 c374: c_0_10_5 + c_1_10_5 <= 1
 c375: - x_0_10 + c_0_10_7 <= 0
 c376: - x_0_7 + c_0_10_7 <= 0
 c377: - x_0_7 - x_0_10 + c_0_10_7 >= -1
 c378: c_0_10_7 + c_1_10_7 <= 1
 c379: - x_0_11 + c_0_11_1 <= 0
 c380: - x_0_1 + c_0_11_1 <= 0
 c381: - x_0_1 - x_0_11 + c_0_11_1 >= -1
 c382: c_0_11_1 + c_1_11_1 <= 1
 c383: - x_0_11 + c_0_11_4 <= 0
 c384: - x_0_4 + c_0_11_4 <= 0
 c385: - x_0_4 - x_0_11 + c_0_11_4 >= -1
 c386: c_0_11_4 + c_1_11_4 <= 1
 c387: - x_0_11 + c_0_11_6 <= 0
 c388: - x_0_6 + c_0_11_6 <= 0
 c389: - x_0_6 - x_0_11 + c_0_11_6 >= -1
 c390: c_0_11_6 + c_1_11_6 <= 1
 c391: - x_1_0 + c_1_0_4 <= 0
 c392: - x_1_4 + c_1_0_4 <= 0
 c393: - x_1_0 - x_1_4 + c_1_0_4 >= -1
 c394: c_0_0_4 + c_1_0_4 <= 1
 c395: - x_1_0 + c_1_0_6 <= 0
 c396: - x_1_6 + c_1_0_6 <= 0
 c397: - x_1_0 - x_1_6 + c_1_0_6 >= -1
 c398: c_0_0_6 + c_1_0_6 <= 1
 c399: - x_1_0 + c_1_0_7 <= 0
 c400: - x_1_7 + c_1_0_7 <= 0
 c401: - x_1_0 - x_1_7 + c_1_0_7 >= -1
 c402: c_0_0_7 + c_1_0_7 <= 1
 c403: - x_1_0 + c_1_0_8 <= 0
 c404: - x_1_8 + c_1_0_8 <= 0
 c405: - x_1_0 - x_1_8 + c_1_0_8 >= -1
 c406: c_0_0_8 + c_1_0_8 <= 1
 c407: - x_1_0 + c_1_0_9 <= 0
 c408: - x_1_9 + c_1_0_9 <= 0
 c409: - x_1_0 - x_1_9 + c_1_0_9 >= -1
 c410: c_0_0_9 + c_1_0_9 <= 1
 c411: - x_1_1 + c_1_1_4 <= 0
 c412: - x_1_4 + c_1_1_4 <= 0
 c413: - x_1_1 - x_1_4 + c_1_1_4 >= -1
 c414: c_0_1_4 + c_1_1_4 <= 1
 c415: - x_1_1 + c_1_1_10 <= 0
 c416: - x_1_10 + c_1_1_10 <= 0
 c417: - x_1_1 - x_1_10 + c_1_1_10 >= -1
 c418: c_0_1_10 + c_1_1_10 <= 1
 c419: - x_1_1 + c_1_1_11 <= 0
 c420: - x_1_11 + c_1_1_11 <= 0
 c421: - x_1_1 - x_1_11 + c_1_1_11 >= -1
 c422: c_0_1_11 + c_1_1_11 <= 1
 c423: - x_1_2 + c_1_2_6 <= 0
 c424: - x_1_6 + c_1_2_6 <= 0
 c425: - x_1_2 - x_1_6 + c_1_2_6 >= -1
 c426: c_0_2_6 + c_1_2_6 <= 1
 c427: - x_1_2 + c_1_2_8 <= 0
 c428: - x_1_8 + c_1_2_8 <= 0
 c429: - x_1_2 - x_1_8 + c_1_2_8 >= -1
 c430: c_0_2_8 + c_1_2_8 <= 1
 c431: - x_1_2 + c_1_2_9 <= 0
 c432: - x_1_9 + c_1_2_9 <= 0
 c433: - x_1_2 - x_1_9 + c_1_2_9 >= -1
 c434: c_0_2_9 + c_1_2_9 <= 1
 c435: - x_1_3 + c_1_3_7 <= 0
 c436: - x_1_7 + c_1_3_7 <= 0
 c437: - x_1_3 - x_1_7 + c_1_3_7 >= -1
 c438: c_0_3_7 + c_1_3_7 <= 1
 c439: - x_1_3 + c_1_3_8 <= 0
 c440: - x_1_8 + c_1_3_8 <= 0
 c441: - x_1_3 - x_1_8 + c_1_3_8 >= -1
 c442: c_0_3_8 + c_1_3_8 <= 1
 c443: - x_1_4 + c_1_4_0 <= 0
 c444: - x_1_0 + c_1_4_0 <= 0
 c445: - x_1_0 - x_1_4 + c_1_4_0 >= -1
 c446: c_0_4_0 + c_1_4_0 <= 1
 c447: - x_1_4 + c_1_4_1 <= 0
 c448: - x_1_1 + c_1_4_1 <= 0
 c449: - x_1_1 - x_1_4 + c_1_4_1 >= -1
 c450: c_0_4_1 + c_1_4_1 <= 1
 c451: - x_1_4 + c_1_4_6 <= 0
 c452: - x_1_6 + c_1_4_6 <= 0
 c453: - x_1_4 - x_1_6 + c_1_4_6 >= -1
 c454: c_0_4_6 + c_1_4_6 <= 1
 c455: - x_1_4 + c_1_4_7 <= 0
 c456: - x_1_7 + c_1_4_7 <= 0
 c457: - x_1_4 - x_1_7 + c_1_4_7 >= -1
 c458: c_0_4_7 + c_1_4_7 <= 1
 c459: - x_1_4 + c_1_4_10 <= 0
 c460: - x_1_10 + c_1_4_10 <= 0
 c461: - x_1_4 - x_1_10 + c_1_4_10 >= -1
 c462: c_0_4_10 + c_1_4_10 <= 1
 c463: - x_1_4 + c_1_4_11 <= 0
 c464: - x_1_11 + c_1_4_11 <= 0
 c465: - x_1_4 - x_1_11 + c_1_4_11 >= -1
 c466: c_0_4_11 + c_1_4_11 <= 1
 c467: - x_1_5 + c_1_5_7 <= 0
 c468: - x_1_7 + c_1_5_7 <= 0
 c469: - x_1_5 - x_1_7 + c_1_5_7 >= -1
 c470: c_0_5_7 + c_1_5_7 <= 1
 c471: - x_1_5 + c_1_5_10 <= 0
 c472: - x_1_10 + c_1_5_10 <= 0
 c473: - x_1_5 - x_1_10 + c_1_5_10 >= -1
 c474: c_0_5_10 + c_1_5_10 <= 1
 c475: - x_1_6 + c_1_6_0 <= 0
 c476: - x_1_0 + c_1_6_0 <= 0
 c477: - x_1_0 - x_1_6 + c_1_6_0 >= -1
 c478: c_0_6_0 + c_1_6_0 <= 1
 c479: - x_1_6 + c_1_6_2 <= 0
 c480: - x_1_2 + c_1_6_2 <= 0
 c481: - x_1_2 - x_1_6 + c_1_6_2 >= -1
 c482: c_0_6_2 + c_1_6_2 <= 1
 c483: - x_1_6 + c_1_6_4 <= 0
 c484: - x_1_4 + c_1_6_4 <= 0
 c485: - x_1_4 - x_1_6 + c_1_6_4 >= -1
 c486: c_0_6_4 + c_1_6_4 <= 1
 c487: - x_1_6 + c_1_6_9 <= 0
 c488: - x_1_9 + c_1_6_9 <= 0
 c489: - x_1_6 - x_1_9 + c_1_6_9 >= -1
 c490: c_0_6_9 + c_1_6_9 <= 1
 c491: - x_1_6 + c_1_6_11 <= 0
 c492: - x_1_11 + c_1_6_11 <= 0
 c493: - x_1_6 - x_1_11 + c_1_6_11 >= -1
 c494: c_0_6_11 + c_1_6_11 <= 1
 c495: - x_1_7 + c_1_7_0 <= 0
 c496: - x_1_0 + c_1_7_0 <= 0
 c497: - x_1_0 - x_1_7 + c_1_7_0 >= -1
 c498: c_0_7_0 + c_1_7_0 <= 1
 c499: - x_1_7 + c_1_7_3 <= 0
 c500: - x_1_3 + c_1_7_3 <= 0
 c501: - x_1_3 - x_1_7 + c_1_7_3 >= -1
 c502: c_0_7_3 + c_1_7_3 <= 1
 c503: - x_1_7 + c_1_7_4 <= 0
 c504: - x_1_4 + c_1_7_4 <= 0
 c505: - x_1_4 - x_1_7 + c_1_7_4 >= -1
 c506: c_0_7_4 + c_1_7_4 <= 1
 c507: - x_1_7 + c_1_7_5 <= 0
 c508: - x_1_5 + c_1_7_5 <= 0
 c509: - x_1_5 - x_1_7 + c_1_7_5 >= -1
 c510: c_0_7_5 + c_1_7_5 <= 1
 c511: - x_1_7 + c_1_7_8 <= 0
 c512: - x_1_8 + c_1_7_8 <= 0
 c513: - x_1_7 - x_1_8 + c_1_7_8 >= -1
 c514: c_0_7_8 + c_1_7_8 <= 1
 c515: - x_1_7 + c_1_7_10 <= 0
 c516: - x_1_10 + c_1_7_10 <= 0
 c517: - x_1_7 - x_1_10 + c_1_7_10 >= -1
 c518: c_0_7_10 + c_1_7_10 <= 1
 c519: - x_1_8 + c_1_8_0 <= 0
 c520: - x_1_0 + c_1_8_0 <= 0
 c521: - x_1_0 - x_1_8 + c_1_8_0 >= -1
 c522: c_0_8_0 + c_1_8_0 <= 1
 c523: - x_1_8 + c_1_8_2 <= 0
 c524: - x_1_2 + c_1_8_2 <= 0
 c525: - x_1_2 - x_1_8 + c_1_8_2 >= -1
 c526: c_0_8_2 + c_1_8_2 <= 1
 c527: - x_1_8 + c_1_8_3 <= 0
 c528: - x_1_3 + c_1_8_3 <= 0
 c529: - x_1_3 - x_1_8 + c_1_8_3 >= -1
 c530: c_0_8_3 + c_1_8_3 <= 1
 c531: - x_1_8 + c_1_8_7 <= 0
 c532: - x_1_7 + c_1_8_7 <= 0
 c533: - x_1_7 - x_1_8 + c_1_8_7 >= -1
 c534: c_0_8_7 + c_1_8_7 <= 1
 c535: - x_1_8 + c_1_8_9 <= 0
 c536: - x_1_9 + c_1_8_9 <= 0
 c537: - x_1_8 - x_1_9 + c_1_8_9 >= -1
 c538: c_0_8_9 + c_1_8_9 <= 1
 c539: - x_1_9 + c_1_9_0 <= 0
 c540: - x_1_0 + c_1_9_0 <= 0
 c541: - x_1_0 - x_1_9 + c_1_9_0 >= -1
 c542: c_0_9_0 + c_1_9_0 <= 1
 c543: - x_1_9 + c_1_9_2 <= 0
 c544: - x_1_2 + c_1_9_2 <= 0
 c545: - x_1_2 - x_1_9 + c_1_9_2 >= -1
 c546: c_0_9_2 + c_1_9_2 <= 1
 c547: - x_1_9 + c_1_9_6 <= 0
 c548: - x_1_6 + c_1_9_6 <= 0
 c549: - x_1_6 - x_1_9 + c_1_9_6 >= -1
 c550: c_0_9_6 + c_1_9_6 <= 1
 c551: - x_1_9 + c_1_9_8 <= 0
 c552: - x_1_8 + c_1_9_8 <= 0
 c553: - x_1_8 - x_1_9 + c_1_9_8 >= -1
 c554: c_0_9_8 + c_1_9_8 <= 1
 c555: - x_1_10 + c_1_10_1 <= 0
 c556: - x_1_1 + c_1_10_1 <= 0
 c557: - x_1_1 - x_1_10 + c_1_10_1 >= -1
 c558: c_0_10_1 + c_1_10_1 <= 1
 c559: - x_1_10 + c_1_10_4 <= 0
 c560: - x_1_4 + c_1_10_4 <= 0
 c561: - x_1_4 - x_1_10 + c_1_10_4 >= -1
 c562: c_0_10_4 + c_1_10_4 <= 1
 c563: - x_1_10 + c_1_10_5 <= 0
 c564: - x_1_5 + c_1_10_5 <= 0
 c565: - x_1_5 - x_1_10 + c_1_10_5 >= -1
 c566: c_0_10_5 + c_1_10_5 <= 1
 c567: - x_1_10 + c_1_10_7 <= 0
 c568: - x_1_7 + c_1_10_7 <= 0
 c569: - x_1_7 - x_1_10 + c_1_10_7 >= -1
 c570: c_0_10_7 + c_1_10_7 <= 1
 c571: - x_1_11 + c_1_11_1 <= 0
 c572: - x_1_1 + c_1_11_1 <= 0
 c573: - x_1_1 - x_1_11 + c_1_11_1 >= -1
 c574: c_0_11_1 + c_1_11_1 <= 1
 c575: - x_1_11 + c_1_11_4 <= 0
 c576: - x_1_4 + c_1_11_4 <= 0
 c577: - x_1_4 - x_1_11 + c_1_11_4 >= -1
 c578: c_0_11_4 + c_1_11_4 <= 1
 c579: - x_1_11 + c_1_11_6 <= 0
 c580: - x_1_6 + c_1_11_6 <= 0
 c581: - x_1_6 - x_1_11 + c_1_11_6 >= -1
 c582: c_0_11_6 + c_1_11_6 <= 1
Bounds
 0 <= x_0_0 <= 1
 0 <= x_0_1 <= 1
 0 <= x_0_2 <= 1
 0 <= x_0_3 <= 1
 0 <= x_0_4 <= 1
 0 <= x_0_5 <= 1
 0 <= x_0_6 <= 1
 0 <= x_0_7 <= 1
 0 <= x_0_8 <= 1
 0 <= x_0_9 <= 1
 0 <= x_0_10 <= 1
 0 <= x_0_11 <= 1
 0 <= x_1_0 <= 1
 0 <= x_1_1 <= 1
 0 <= x_1_2 <= 1
 0 <= x_1_3 <= 1
 0 <= x_1_4 <= 1
 0 <= x_1_5 <= 1
 0 <= x_1_6 <= 1
 0 <= x_1_7 <= 1
 0 <= x_1_8 <= 1
 0 <= x_1_9 <= 1
 0 <= x_1_10 <= 1
 0 <= x_1_11 <= 1
 0 <= c_0_0_4 <= 1
 0 <= c_0_0_6 <= 1
 0 <= c_0_0_7 <= 1
 0 <= c_0_0_8 <= 1
 0 <= c_0_0_9 <= 1
 0 <= c_0_1_4 <= 1
 0 <= c_0_1_10 <= 1
 0 <= c_0_1_11 <= 1
 0 <= c_0_2_6 <= 1
 0 <= c_0_2_8 <= 1
 0 <= c_0_2_9 <= 1
 0 <= c_0_3_7 <= 1
 0 <= c_0_3_8 <= 1
 0 <= c_0_4_0 <= 1
 0 <= c_0_4_1 <= 1
 0 <= c_0_4_6 <= 1
 0 <= c_0_4_7 <= 1
 0 <= c_0_4_10 <= 1
 0 <= c_0_4_11 <= 1
 0 <= c_0_5_7 <= 1
 0 <= c_0_5_10 <= 1
 0 <= c_0_6_0 <= 1
 0 <= c_0_6_2 <= 1
 0 <= c_0_6_4 <= 1
 0 <= c_0_6_9 <= 1
 0 <= c_0_6_11 <= 1
 0 <= c_0_7_0 <= 1
 0 <= c_0_7_3 <= 1
 0 <= c_0_7_4 <= 1
 0 <= c_0_7_5 <= 1
 0 <= c_0_7_8 <= 1
 0 <= c_0_7_10 <= 1
 0 <= c_0_8_0 <= 1
 0 <= c_0_8_2 <= 1
 0 <= c_0_8_3 <= 1
 0 <= c_0_8_7 <= 1
 0 <= c_0_8_9 <= 1
 0 <= c_0_9_0 <= 1
 0 <= c_0_9_2 <= 1
 0 <= c_0_9_6 <= 1
 0 <= c_0_9_8 <= 1
 0 <= c_0_10_1 <= 1
 0 <= c_0_10_4 <= 1
 0 <= c_0_10_5 <= 1
 0 <= c_0_10_7 <= 1
 0 <= c_0_11_1 <= 1
 0 <= c_0_11_4 <= 1
 0 <= c_0_11_6 <= 1
 0 <= c_1_0_4 <= 1
 0 <= c_1_0_6 <= 1
 0 <= c_1_0_7 <= 1
 0 <= c_1_0_8 <= 1
 0 <= c_1_0_9 <= 1
 0 <= c_1_1_4 <= 1
 0 <= c_1_1_10 <= 1
 0 <= c_1_1_11 <= 1
 0 <= c_1_2_6 <= 1
 0 <= c_1_2_8 <= 1
 0 <= c_1_2_9 <= 1
 0 <= c_1_3_7 <= 1
 0 <= c_1_3_8 <= 1
 0 <= c_1_4_0 <= 1
 0 <= c_1_4_1 <= 1
 0 <= c_1_4_6 <= 1
 0 <= c_1_4_7 <= 1
 0 <= c_1_4_10 <= 1
 0 <= c_1_4_11 <= 1
 0 <= c_1_5_7 <= 1
 0 <= c_1_5_10 <= 1
 0 <= c_1_6_0 <= 1
 0 <= c_1_6_2 <= 1
 0 <= c_1_6_4 <= 1
 0 <= c_1_6_9 <= 1
 0 <= c_1_6_11 <= 1
 0 <= c_1_7_0 <= 1
 0 <= c_1_7_3 <= 1
 0 <= c_1_7_4 <= 1
 0 <= c_1_7_5 <= 1
 0 <= c_1_7_8 <= 1
 0 <= c_1_7_10 <= 1
 0 <= c_1_8_0 <= 1
 0 <= c_1_8_2 <= 1
 0 <= c_1_8_3 <= 1
 0 <= c_1_8_7 <= 1
 0 <= c_1_8_9 <= 1
 0 <= c_1_9_0 <= 1
 0 <= c_1_9_2 <= 1
 0 <= c_1_9_6 <= 1
 0 <= c_1_9_8 <= 1
 0 <= c_1_10_1 <= 1
 0 <= c_1_10_4 <= 1
 0 <= c_1_10_5 <= 1
 0 <= c_1_10_7 <= 1
 0 <= c_1_11_1 <= 1
 0 <= c_1_11_4 <= 1
 0 <= c_1_11_6 <= 1
Binaries
 x_0_0  x_0_1  x_0_2  x_0_3  x_0_4  x_0_5  x_0_6  x_0_7  x_0_8  x_0_9  x_0_10 
 x_0_11  x_1_0  x_1_1  x_1_2  x_1_3  x_1_4  x_1_5  x_1_6  x_1_7  x_1_8  x_1_9 
 x_1_10  x_1_11  c_0_0_4  c_0_0_6  c_0_0_7  c_0_0_8  c_0_0_9  c_0_1_4 
 c_0_1_10  c_0_1_11  c_0_2_6  c_0_2_8  c_0_2_9  c_0_3_7  c_0_3_8  c_0_4_0 
 c_0_4_1  c_0_4_6  c_0_4_7  c_0_4_10  c_0_4_11  c_0_5_7  c_0_5_10  c_0_6_0 
 c_0_6_2  c_0_6_4  c_0_6_9  c_0_6_11  c_0_7_0  c_0_7_3  c_0_7_4  c_0_7_5 
 c_0_7_8  c_0_7_10  c_0_8_0  c_0_8_2  c_0_8_3  c_0_8_7  c_0_8_9  c_0_9_0 
 c_0_9_2  c_0_9_6  c_0_9_8  c_0_10_1  c_0_10_4  c_0_10_5  c_0_10_7  c_0_11_1 
 c_0_11_4  c_0_11_6  c_1_0_4  c_1_0_6  c_1_0_7  c_1_0_8  c_1_0_9  c_1_1_4 
 c_1_1_10  c_1_1_11  c_1_2_6  c_1_2_8  c_1_2_9  c_1_3_7  c_1_3_8  c_1_4_0 
 c_1_4_1  c_1_4_6  c_1_4_7  c_1_4_10  c_1_4_11  c_1_5_7  c_1_5_10  c_1_6_0 
 c_1_6_2  c_1_6_4  c_1_6_9  c_1_6_11  c_1_7_0  c_1_7_3  c_1_7_4  c_1_7_5 
 c_1_7_8  c_1_7_10  c_1_8_0  c_1_8_2  c_1_8_3  c_1_8_7  c_1_8_9  c_1_9_0 
 c_1_9_2  c_1_9_6  c_1_9_8  c_1_10_1  c_1_10_4  c_1_10_5  c_1_10_7  c_1_11_1 
 c_1_11_4  c_1_11_6 
End
